data/solutions/recovery/wellformed/moderate/flexible/wellformed_moderate_instance76/12.sol
Elapsed time: 0.05
Upper bound: 1863.0
Planning weighted value: 117677.0
C[0]=1863.0
C[1]=1858.0
C[2]=1857.0
C[3]=1853.0
C[4]=1850.0
C[5]=0.0
y[0]=2
y[1]=0
y[2]=0
y[3]=3
y[4]=1
y[5]=0
y[6]=1
y[7]=0
y[8]=4
y[9]=2
y[10]=3
y[11]=3
y[12]=1
y[13]=1
y[14]=1
y[15]=4
y[16]=4
y[17]=3
y[18]=2
y[19]=2
