data/solutions/recovery/wellformed/moderate/flexible/wellformed_moderate_instance76/12.log

Log started (V12.6.3.0) Fri Apr 20 20:56:40 2018

New value for default parallel thread count: 1

Problem '/tmp/tmpgoKKCb.pyomo.lp' read.
Read time = 0.00 sec. (0.03 ticks)

Problem name         : /tmp/tmpgoKKCb.pyomo.lp
Objective sense      : Minimize
Variables            :     128  [Nneg: 1,  Binary: 120,  General Integer: 7]
Objective nonzeros   :       1
Linear constraints   :      54  [Less: 26,  Equal: 28]
  Nonzeros           :    1973
  RHS nonzeros       :      41

Variables            : Min LB: 0.000000         Max UB: 1.000000       
Objective nonzeros   : Min   : 1.000000         Max   : 1.000000       
Linear constraints   :
  Nonzeros           : Min   : 1.000000         Max   : 971.0000       
  RHS nonzeros       : Min   : 1.000000         Max   : 2.000000       
Tried aggregator 2 times.
MIP Presolve eliminated 23 rows and 26 columns.
Aggregator did 6 substitutions.
Reduced MIP has 25 rows, 96 columns, and 259 nonzeros.
Reduced MIP has 95 binaries, 1 generals, 0 SOSs, and 0 indicators.
Presolve time = 0.00 sec. (0.74 ticks)
Found incumbent of value 9281.000000 after 0.00 sec. (0.91 ticks)
Probing time = 0.00 sec. (0.08 ticks)
Cover probing fixed 0 vars, tightened 3 bounds.
Tried aggregator 1 time.
Reduced MIP has 25 rows, 96 columns, and 259 nonzeros.
Reduced MIP has 95 binaries, 1 generals, 0 SOSs, and 0 indicators.
Presolve time = 0.00 sec. (0.17 ticks)
Probing time = 0.00 sec. (0.06 ticks)
Clique table members: 19.
MIP emphasis: balance optimality and feasibility.
MIP search method: dynamic search.
Parallel mode: none, using 1 thread.
Root relaxation solution time = 0.00 sec. (0.09 ticks)

        Nodes                                         Cuts/
   Node  Left     Objective  IInf  Best Integer    Best Bound    ItCnt     Gap

*     0+    0                         9281.0000      971.0000            89.54%
      0     0     1856.2000     9     9281.0000     1856.2000       11   80.00%
*     0+    0                         1978.0000     1856.2000             6.16%
      0     0     1857.0000    10     1978.0000      Fract: 3       25    6.12%
      0     0     1857.0000    12     1978.0000      Cuts: 16       42    6.12%
*     0+    0                         1970.0000     1857.0000             5.74%
      0     0     1857.0000    14     1970.0000       Cuts: 5       57    5.74%
*     0+    0                         1870.0000     1857.0000             0.70%
      0     2     1857.0000     5     1870.0000     1857.0000       57    0.70%
Elapsed time = 0.01 sec. (7.31 ticks, tree = 0.01 MB, solutions = 4)
*   213    30      integral     0     1866.0000     1857.0000      917    0.48%
*   390    34      integral     0     1863.0000     1857.0000     1673    0.32%

Cover cuts applied:  1
Mixed integer rounding cuts applied:  1
Zero-half cuts applied:  2
Gomory fractional cuts applied:  1

Root node processing (before b&c):
  Real time             =    0.01 sec. (7.30 ticks)
Sequential b&c:
  Real time             =    0.02 sec. (15.63 ticks)
                          ------------
Total (root+branch&cut) =    0.03 sec. (22.93 ticks)

Solution pool: 6 solutions saved.

MIP - Integer optimal solution:  Objective =  1.8630000000e+03
Solution time =    0.03 sec.  Iterations = 2028  Nodes = 506
Deterministic time = 22.93 ticks  (673.27 ticks/sec)


Incumbent solution written to file '/tmp/tmpYISutG.cplex.sol'.
